50

100 27 301
97 23 345
96 23 297
92 27 353
89 28 290
88 39 272
88 18 318
87 2 337
83 4 309
75 4 299
75 35 228
72 3 242
71 31 339
70 7 325
69 3 229
66 22 255
63 15 315
62 8 260
62 3 326
61 10 301
60 4 221
58 16 293
50 15 266
47 5 331
46 19 350
40 18 238
40 3 255
37 18 252
36 4 212
32 11 351
31 3 327
30 13 301
28 4 274
27 12 359
27 1 127
26 4 347
24 2 84
18 3 128
16 4 337
14 1 180
13 7 81
12 2 355
10 4 157
10 4 342
10 1 303
8 1 107
7 3 215
5 2 78
4 1 161
2 1 301
